c clasp version 2.1.1
c Reading from pb_400_02.cnf
c Solving...
s UNKNOWN

c TIME LIMIT    : 1
c Models        : 0+    
c Time          : 99999.963s (Solving: 99998.32s 1st Model: 0.00s Unsat: 0.00s)
c CPU Time      : 99839.580s
c Choices       : 146269866
c Conflicts     : 101018833
c Restarts      : 31     (Average: 3258672.03 Last: 73632233)

c Variables     : 612968 (Eliminated:   16 Frozen:    0)
c Constraints   : 711969 (Binary: 57.1% Ternary: 41.7% Other:  1.2%)
c Lemmas        : 101018833 (Binary:  0.0% Ternary:  0.0% Other:100.0%)
c   Conflict    : 101018833 (Average Length: 928.2) 
c   Loop        : 0      (Average Length: 0.0) 
c   Other       : 0      (Average Length: 0.0)
c   Deleted     : 100880471
